c defined variables: 
p cnf 86 57
a 1 2 3 4 5 6 7 8 9 10 11 12 13 14 0
d 15 8 14 0
d 16 9 13 0
d 17 2 3 6 0
d 18 1 3 10 12 0
d 19 5 10 11 0
d 20 1 3 7 8 13 14 0
d 21 0
d 22 1 10 0
d 23 1 7 8 9 12 0
d 24 2 8 9 0
d 25 3 5 6 9 0
d 26 9 14 0
d 27 8 0
d 28 2 4 5 7 11 0
9 -13 15 16 -17 0
-9 14 16 -19 -20 0
6 7 15 17 20 0
3 12 -17 18 21 0
12 -14 20 22 -23 0
7 10 15 -18 23 0
-8 9 17 -18 23 0
5 -11 -18 -19 23 0
5 -10 -16 19 -24 0
-5 10 17 19 -24 0
1 10 -19 20 -24 0
9 -12 18 21 -24 0
7 -9 20 -23 -24 0
-2 -12 -22 -23 -24 0
-2 8 -15 19 24 0
-5 11 -19 -20 24 0
-8 -12 18 20 24 0
9 11 19 20 24 0
-7 13 -20 -22 24 0
-3 -7 -18 23 24 0
-7 9 -20 23 24 0
1 -5 -15 -18 -25 0
3 -8 -18 -23 -25 0
-9 10 -18 -23 -25 0
1 8 18 -24 -25 0
-13 14 15 -20 25 0
6 -9 19 21 25 0
5 9 17 22 25 0
-1 -5 19 22 25 0
-8 11 19 -20 -26 0
-1 -7 -16 20 -26 0
6 12 23 -25 -26 0
2 -8 17 -21 -27 0
-9 -12 23 -24 -27 0
-5 9 -20 25 -27 0
10 -14 22 26 -27 0
1 3 -17 -18 27 0
-5 11 -19 -22 27 0
7 9 -16 -17 -28 0
-7 11 -16 17 -28 0
7 11 -15 -19 -28 0
-5 -7 -17 20 -28 0
5 -7 15 -24 -28 0
-1 9 20 -26 -28 0
11 -14 19 26 -28 0
2 11 -16 27 -28 0
7 -14 26 27 -28 0
7 -13 16 18 28 0
-5 -14 -15 19 28 0
7 10 18 -21 28 0
-4 -11 20 21 28 0
4 -9 -20 -24 28 0
1 -10 22 24 28 0
5 7 16 25 28 0
-1 4 18 -26 28 0
2 8 -21 -27 28 0
-5 7 -24 27 28 0
